dates = {'2021-11-14','2021-11-15','2021-11-16','2021-11-17','2021-11-18','2021-11-19','2021-11-20','2021-11-21','2021-11-22','2021-11-23'};

daysOfWeek = [Sunday,Monday,Tuesday,Wednesday,Thursday,Friday,Saturday,Sunday,Monday,Tuesday];

% For this week, how many people will be here.
numPeople = [54,65,62,74,83,93,84,88,85,95];

% Physical workers need 50 to 100 % more nutrients per day.
numPhysicalWorkers = [28.0,33.0,33.0,37.5,37.5,38.0,37.0,37.0,37.0,40.0];

% Males need +25% more nutrients per day.
numMen = [40,47,47,52,60,71,71,65,65,72];

% Num people who do not eat categories. contains = {none, meat, milk, gluten, egg, nut, seed, sugars}
numRefusals = [| 0,5,0,3,0,1,0,4 | 0,0,0,4,0,0,0,0 | 0,0,2,1,0,1,0,0 | 0,0,1,3,2,0,3,0 | 0,5,2,1,0,0,1,0 | 0,0,2,0,5,0,4,0 | 0,1,0,3,1,3,1,0 | 0,0,0,0,0,14,0,0 | 0,0,8,1,0,0,4,0 | 0,0,3,0,6,1,0,0 |];

